52643
19, 35, 54, 34, 26, 43, 13, 51, 40, 7, 37, 5, 50, 38, 32, 41, 48, 21, 29, 22, 10, 16, 39, 15, 52, 25, 27, 33, 45, 2, 14, 12, 4, 30, 47, 53, 6, 3, 24, 20, 8, 44, 49, 17, 46, 36, 28, 31, 23, 9, 42, 1, 18, 11, 55
